Version identifier: 20.1.0.0 | 2020-11-10 | 9bedb6d68
CPXPARAM_Threads                                 1
CPXPARAM_TimeLimit                               7200
CPXPARAM_MIP_Tolerances_MIPGap                   0
Generic callback                                 0x60
1 of 1 MIP starts provided solutions.
MIP start 'm1' defined initial solution with objective 3987.3212.
Tried aggregator 1 time.
Reduced MIP has 801001 rows, 800801 columns, and 2400800 nonzeros.
Reduced MIP has 800 binaries, 0 generals, 0 SOSs, and 0 indicators.
Presolve time = 0.76 sec. (638.96 ticks)
Probing time = 0.10 sec. (100.03 ticks)
Tried aggregator 1 time.
Reduced MIP has 801001 rows, 800801 columns, and 2400800 nonzeros.
Reduced MIP has 800 binaries, 0 generals, 0 SOSs, and 0 indicators.
Presolve time = 0.71 sec. (625.98 ticks)
Probing time = 0.10 sec. (100.03 ticks)
MIP emphasis: balance optimality and feasibility.
MIP search method: dynamic search.
Parallel mode: none, using 1 thread.
Root relaxation solution time = 0.25 sec. (308.41 ticks)

        Nodes                                         Cuts/
   Node  Left     Objective  IInf  Best Integer    Best Bound    ItCnt     Gap

*     0+    0                         3987.3212     5432.0000            36.23%
      0     0     4055.6484    18     3987.3212     5432.0000        0   36.23%
      0     2     4055.6484    18     3987.3212     4055.6483        0    1.71%
Elapsed time = 3476.98 sec. (3210641.44 ticks, tree = 0.01 MB, solutions = 1)

User cuts applied:  6

Root node processing (before b&c):
  Real time             = 3476.95 sec. (3210621.89 ticks)
Sequential b&c:
  Real time             = 3723.41 sec. (2303527.17 ticks)
                          ------------
Total (root+branch&cut) = 7200.36 sec. (5514149.06 ticks)
@Parameters: 
is_S_cut                                true
is_add_all_yinF                         true
is_start_value                          true
is_usercut                              true
is_visualization                        false
uc_only_rootnode                        false

data                                    Qi
fn                                      data/Qi/instance_1000_800.csv
mode                                    ZLP
solver                                  cplex

p                                       10
r                                       2

EPS                                     1.0e-06
EPS_vio                                 1.0e-04
beta                                    0.10
gap                                     0.00
nodelimit                               Inf
timelimit                               7200.00


@PrintInfos
ItCnt: 139635
Current gap: 1.71 %
Termination Status: TIME_LIMIT
Primal Status: FEASIBLE_POINT
Solve Time: 7200.36 sec
Objective Value: 3987.321175
Number of Nodes:      1

CutInfo: [phase] num / time (sec) 
ZLP             [phase1]     0 / 0.00 [rLC]     3 / 15.95 [rUC]     2 / 7.94 [sLC]     0 / 0.00 [sUC]     4 / 19.43 
OldSubmodular   [phase1]     0 / 0.00 [rLC]     0 / 0.00 [rUC]     0 / 0.00 [sLC]     0 / 0.00 [sUC]     0 / 0.00 
NewSubmodular   [phase1]     0 / 0.00 [rLC]     0 / 0.00 [rUC]     0 / 0.00 [sLC]     0 / 0.00 [sUC]     0 / 0.00 
PMP             [phase1]     0 / 0.00 [rLC]     4 / 11.51 [rUC]     2 / 5.56 [sLC]     0 / 0.00 [sUC]     4 / 13.31 
Separation Round: [phase1] 0  [rLC] 4  [rUC] 2  [sLC] 0  [sUC] 4
Root Best Bound 4055.648349
Root Best Integer: 3987.321175
Best Bound: 4055.648349
Best Integer: 3987.321175

